     Program PWSCF v.7.0 starts on 29Nov2022 at 20:38:24

     K-points division:     npool     =       9
     R & G space division:  proc/nbgrp/npool/nimage =       7

     Reading input from scf.in
     Message from routine read_cards :
     DEPRECATED: no units specified in CELL_PARAMETERS card

     Current dimensions of program PWSCF are:
     Max number of different atomic species (ntypx) = 10
     Max number of k-points (npk) =  40000
     Max angular momentum in pseudopotentials (lmaxx) =  4
     Message from routine setup:
     using ibrav=0 with symmetry is DISCOURAGED, use correct ibrav instead

     Using Slab Decomposition

     bravais-lattice index     =            0
     lattice parameter (alat)  =       9.6670  a.u.
     unit-cell volume          =     734.1880 (a.u.)^3
     number of atoms/cell      =           10
     number of atomic types    =            2
     number of electrons       =        90.00
     number of Kohn-Sham states=           48
     kinetic-energy cutoff     =     104.0000  Ry
     charge density cutoff     =     416.0000  Ry
     scf convergence threshold =      1.0E-09
     mixing beta               =       0.7000
     number of iterations used =            8  plain     mixing
     Exchange-correlation= PBE
                           (   1   4   3   4   0   0   0)

     celldm(1)=   9.666979  celldm(2)=   0.000000  celldm(3)=   0.000000
     celldm(4)=   0.000000  celldm(5)=   0.000000  celldm(6)=   0.000000

     crystal axes: (cart. coord. in units of alat)
               a(1) = (   0.407945   0.913007   0.000000 )
               a(2) = (  -0.407945   0.913007   0.000000 )
               a(3) = (   0.000000   0.340027   1.091012 )

     reciprocal axes: (cart. coord. in units 2 pi/alat)
               b(1) = (  1.225655  0.547641 -0.170679 )
               b(2) = ( -1.225655  0.547641 -0.170679 )
               b(3) = (  0.000000 -0.000000  0.916580 )

     PseudoPot. # 1 for O  read from file:
     /flash/jtv1/xanes_bench/OCEAN_times/mp-1203-bands/Common/psp/O-high.UPF
     MD5 check sum: 36339a0223a6b3a524787ddb1ba8142c
     Pseudo is Norm-conserving + core correction, Zval =  6.0
     Generated using ONCVPSP code by D. R. Hamann
     Using radial grid of  936 points,  5 beta functions with:
                l(1) =   0
                l(2) =   0
                l(3) =   1
                l(4) =   1
                l(5) =   2

     PseudoPot. # 2 for Ti read from file:
     /flash/jtv1/xanes_bench/OCEAN_times/mp-1203-bands/Common/psp/Ti-sp.UPF
     MD5 check sum: 3c4aa74137ba4d00a3ffd13e2d64885c
     Pseudo is Norm-conserving + core correction, Zval = 12.0
     Generated using ONCVPSP code by D. R. Hamann
     Using radial grid of 1586 points,  6 beta functions with:
                l(1) =   0
                l(2) =   0
                l(3) =   1
                l(4) =   1
                l(5) =   2
                l(6) =   2

     atomic species   valence    mass     pseudopotential
        O              6.00    15.99940     O ( 1.00)
        Ti            12.00    47.86700     Ti( 1.00)

      4 Sym. Ops., with inversion, found

   Cartesian axes

     site n.     atom                  positions (alat units)
         1           Ti  tau(   1) = (   0.0000000   0.7506465   0.3551462  )
         2           Ti  tau(   2) = (   0.0000000   1.4153933   0.7358656  )
         3           Ti  tau(   3) = (   0.0000000   0.8975437   0.9029584  )
         4           Ti  tau(   4) = (   0.0000000   1.2684961   0.1880533  )
         5           Ti  tau(   5) = (   0.0000000   0.1700134   0.5455059  )
         6           O   tau(   6) = (   0.0000000   0.9130065   0.0000000  )
         7           O   tau(   7) = (   0.0000000   0.3710482   0.1839730  )
         8           O   tau(   8) = (   0.0000000   1.7949915   0.9070388  )
         9           O   tau(   9) = (   0.0000000   0.5355360   0.7163311  )
        10           O   tau(  10) = (   0.0000000   1.6305038   0.3746807  )

     number of k points=    54  Fermi-Dirac smearing, width (Ry)=  0.0200
                       cart. coord. in units 2pi/alat
        k(    1) = (   0.0000000   0.0912735   0.0632116), wk =   0.0222222
        k(    2) = (   0.0000000   0.0912735   0.2465276), wk =   0.0222222
        k(    3) = (   0.0000000   0.0912735  -0.4867367), wk =   0.0222222
        k(    4) = (   0.0000000   0.0912735  -0.3034206), wk =   0.0222222
        k(    5) = (   0.0000000   0.0912735  -0.1201045), wk =   0.0222222
        k(    6) = (  -0.2042759   0.1825471   0.0347651), wk =   0.0444444
        k(    7) = (  -0.2042759   0.1825471   0.2180812), wk =   0.0444444
        k(    8) = (  -0.2042759   0.1825471  -0.5151831), wk =   0.0444444
        k(    9) = (  -0.2042759   0.1825471  -0.3318671), wk =   0.0444444
        k(   10) = (  -0.2042759   0.1825471  -0.1485510), wk =   0.0444444
        k(   11) = (  -0.4085518   0.2738206   0.0063186), wk =   0.0444444
        k(   12) = (  -0.4085518   0.2738206   0.1896347), wk =   0.0444444
        k(   13) = (  -0.4085518   0.2738206  -0.5436296), wk =   0.0444444
        k(   14) = (  -0.4085518   0.2738206  -0.3603135), wk =   0.0444444
        k(   15) = (  -0.4085518   0.2738206  -0.1769975), wk =   0.0444444
        k(   16) = (   0.6128277  -0.1825471   0.1485510), wk =   0.0444444
        k(   17) = (   0.6128277  -0.1825471   0.3318671), wk =   0.0444444
        k(   18) = (   0.6128277  -0.1825471  -0.4013972), wk =   0.0444444
        k(   19) = (   0.6128277  -0.1825471  -0.2180812), wk =   0.0444444
        k(   20) = (   0.6128277  -0.1825471  -0.0347651), wk =   0.0444444
        k(   21) = (   0.4085518  -0.0912735   0.1201045), wk =   0.0444444
        k(   22) = (   0.4085518  -0.0912735   0.3034206), wk =   0.0444444
        k(   23) = (   0.4085518  -0.0912735  -0.4298437), wk =   0.0444444
        k(   24) = (   0.4085518  -0.0912735  -0.2465276), wk =   0.0444444
        k(   25) = (   0.4085518  -0.0912735  -0.0632116), wk =   0.0444444
        k(   26) = (   0.2042759   0.0000000   0.0916580), wk =   0.0444444
        k(   27) = (   0.2042759   0.0000000   0.2749741), wk =   0.0444444
        k(   28) = (   0.2042759   0.0000000  -0.4582902), wk =   0.0222222
        k(   29) = (   0.0000000   0.2738206   0.0063186), wk =   0.0222222
        k(   30) = (   0.0000000   0.2738206   0.1896347), wk =   0.0222222
        k(   31) = (   0.0000000   0.2738206  -0.5436296), wk =   0.0222222
        k(   32) = (   0.0000000   0.2738206  -0.3603135), wk =   0.0222222
        k(   33) = (   0.0000000   0.2738206  -0.1769975), wk =   0.0222222
        k(   34) = (  -0.2042759   0.3650941  -0.0221279), wk =   0.0444444
        k(   35) = (  -0.2042759   0.3650941   0.1611882), wk =   0.0444444
        k(   36) = (  -0.2042759   0.3650941  -0.5720761), wk =   0.0444444
        k(   37) = (  -0.2042759   0.3650941  -0.3887600), wk =   0.0444444
        k(   38) = (  -0.2042759   0.3650941  -0.2054439), wk =   0.0444444
        k(   39) = (   0.8171036  -0.0912735   0.1201045), wk =   0.0444444
        k(   40) = (   0.8171036  -0.0912735   0.3034206), wk =   0.0444444
        k(   41) = (   0.8171036  -0.0912735  -0.4298437), wk =   0.0444444
        k(   42) = (   0.8171036  -0.0912735  -0.2465276), wk =   0.0444444
        k(   43) = (   0.8171036  -0.0912735  -0.0632116), wk =   0.0444444
        k(   44) = (   0.6128277   0.0000000   0.0916580), wk =   0.0444444
        k(   45) = (   0.6128277   0.0000000   0.2749741), wk =   0.0444444
        k(   46) = (   0.6128277   0.0000000  -0.4582902), wk =   0.0222222
        k(   47) = (   0.0000000   0.4563677  -0.0505743), wk =   0.0222222
        k(   48) = (   0.0000000   0.4563677   0.1327417), wk =   0.0222222
        k(   49) = (   0.0000000   0.4563677  -0.6005226), wk =   0.0222222
        k(   50) = (   0.0000000   0.4563677  -0.4172065), wk =   0.0222222
        k(   51) = (   0.0000000   0.4563677  -0.2338904), wk =   0.0222222
        k(   52) = (   1.0213795   0.0000000   0.0916580), wk =   0.0444444
        k(   53) = (   1.0213795   0.0000000   0.2749741), wk =   0.0444444
        k(   54) = (   1.0213795   0.0000000  -0.4582902), wk =   0.0222222

     Initial potential from superposition of free atoms

     starting charge      89.9920, renormalised to      90.0000
     Starting wfcs are   70 randomized atomic wfcs

     Self-consistent Calculation

     iteration #  1     ecut=   104.00 Ry     beta= 0.70
     Davidson diagonalization with overlap
     ethr =  1.00E-02,  avg # of iterations =  2.2

     total energy              =    -759.40375828 Ry
     estimated scf accuracy    <       2.00283366 Ry

[...]

     iteration #  3     ecut=   104.00 Ry     beta= 0.70
     Davidson diagonalization with overlap
     c_bands:  1 eigenvalues not converged
     ethr =  1.00E-03,  avg # of iterations = 16.6

[...]

     iteration #  9     ecut=   104.00 Ry     beta= 0.70
     Davidson diagonalization with overlap
     ethr =  3.51E-06,  avg # of iterations = 10.8

[...]

     total energy              =    -760.46389025 Ry
     estimated scf accuracy    <          1.2E-09 Ry

     iteration # 23     ecut=   104.00 Ry     beta= 0.70
     Davidson diagonalization with overlap
     c_bands:  1 eigenvalues not converged
     c_bands:  1 eigenvalues not converged
     ethr =  6.50E-13,  avg # of iterations = 12.8

     End of self-consistent calculation

          k = 0.0000 0.0913 0.0632 ( 13155 PWs)   bands (ev):

   -43.1879 -43.1333 -43.0458 -43.0422 -42.6556 -19.8500 -19.6955 -19.6776
   -19.5566 -19.5231 -19.5049 -19.4800 -19.4484 -19.3736 -19.3168 -19.2438
   -19.0604 -19.0270 -18.9861 -18.5565  -6.5460  -5.8608  -5.7481  -5.6603
    -5.1186   6.9829   7.2361   7.2865   7.4537   7.6301   7.7403   8.1415
     8.3736   8.8081   8.8247   8.9343   9.2805   9.6457   9.9383   9.9685
    11.6097  12.5226  13.5861  14.0521  14.1994  14.4849  14.9829  15.3134

[...]

          k =-0.2043 0.1825 0.0348 ( 13131 PWs)   bands (ev):

[...]

          k =-0.2043 0.3651-0.2054 ( 13132 PWs)   bands (ev):

[...]

          k = 1.0214 0.0000-0.4583 ( 13142 PWs)   bands (ev):

   -43.1615 -43.1343 -43.0641 -43.0464 -42.6586 -19.7314 -19.6954 -19.6905
   -19.6356 -19.6011 -19.4843 -19.4497 -19.4342 -19.3101 -19.2976 -19.1806
   -19.1470 -19.0932 -19.0569 -18.5515  -5.9467  -5.9213  -5.8549  -5.6025
    -5.2529   6.8122   7.0858   7.2110   7.4785   7.5418   7.8721   8.2990
     8.4229   8.4708   8.8149   8.8497   8.9744   9.0027   9.4389   9.7754
    11.9339  13.1493  13.2658  13.7734  13.9427  14.3876  14.5267  15.2689

     the Fermi energy is    14.5434 ev

!    total energy              =    -760.46389026 Ry
     estimated scf accuracy    <          7.0E-11 Ry
     smearing contrib. (-TS)   =      -0.08473721 Ry
     internal energy E=F+TS    =    -760.37915306 Ry

     The total energy is F=E-TS. E is the sum of the following terms:
     one-electron contribution =    -219.78583141 Ry
     hartree contribution      =     157.14331520 Ry
     xc contribution           =    -130.00955875 Ry
     ewald contribution        =    -567.72707810 Ry

     convergence has been achieved in  23 iterations

     Forces acting on atoms (cartesian axes, Ry/au):

     atom    1 type  2   force =     0.00000000   -0.00408760    0.00228731
     atom    2 type  2   force =     0.00000000    0.00408760   -0.00228731
     atom    3 type  2   force =     0.00000000   -0.00192019    0.00391256
     atom    4 type  2   force =     0.00000000    0.00192019   -0.00391256
     atom    5 type  2   force =     0.00000000    0.00000000    0.00000000
     atom    6 type  1   force =     0.00000000    0.00000000    0.00000000
     atom    7 type  1   force =     0.00000000    0.00131673    0.00366390
     atom    8 type  1   force =     0.00000000   -0.00131673   -0.00366390
     atom    9 type  1   force =     0.00000000    0.00014551    0.00015985
     atom   10 type  1   force =    -0.00000000   -0.00014551   -0.00015985

     Total force =     0.010596     Total SCF correction =     0.000015

     Writing all to output data dir Out/system.save/

     General routines

     Parallel routines

   This run was terminated on:  20:39:22  29Nov2022

   JOB DONE.