     Program PWSCF v.6.7MaX starts on  2Feb2022 at 15: 9:14

     R & G space division:  proc/nbgrp/npool/nimage =      48
     Waiting for input...
     Reading input from standard input
Warning: card &CELL ignored
Warning: card / ignored

     Current dimensions of program PWSCF are:
     Max number of different atomic species (ntypx) = 10
     Max number of k-points (npk) =  40000
     Max angular momentum in pseudopotentials (lmaxx) =  3
     file O.pbe-n-kjpaw_psl.0.1.UPF: wavefunction(s)  2P renormalized
     file Ti.fch.upf: wavefunction(s)  3P renormalized

     Message from routine setup:
     using ibrav=0 with symmetry is DISCOURAGED, use correct ibrav instead

     bravais-lattice index     =            0
     lattice parameter (alat)  =      19.3340  a.u.
     unit-cell volume          =    5873.5039 (a.u.)^3
     number of atoms/cell      =           80
     number of atomic types    =            3
     number of electrons       =       721.00
     number of Kohn-Sham states=          433
     kinetic-energy cutoff     =      75.0000  Ry
     charge density cutoff     =     600.0000  Ry
     scf convergence threshold =      8.0E-09
     mixing beta               =       0.4000
     number of iterations used =            8  plain     mixing
     Exchange-correlation= SLA  PW   PBX  PBC
                           (   1   4   3   4   0   0   0)

     celldm(1)=  19.333959  celldm(2)=   0.000000  celldm(3)=   0.000000
     celldm(4)=   0.000000  celldm(5)=   0.000000  celldm(6)=   0.000000

     crystal axes: (cart. coord. in units of alat)
               a(1) = (   0.407945   0.913007   0.000000 )
               a(2) = (  -0.407945   0.913007   0.000000 )
               a(3) = (   0.000000   0.340027   1.091012 )

     reciprocal axes: (cart. coord. in units 2 pi/alat)
               b(1) = (  1.225655  0.547641 -0.170679 )
               b(2) = ( -1.225655  0.547641 -0.170679 )
               b(3) = (  0.000000  0.000000  0.916580 )

     PseudoPot. # 1 for O  read from file:
     ../../O.pbe-n-kjpaw_psl.0.1.UPF
     MD5 check sum: 0234752ac141de4415c5fc33072bef88
     Pseudo is Projector augmented-wave + core cor, Zval =  6.0
     Generated using "atomic" code by A. Dal Corso  v.5.0.99 svn rev. 10869
     Shape of augmentation charge: BESSEL
     Using radial grid of 1095 points,  4 beta functions with:
                l(1) =   0
                l(2) =   0
                l(3) =   1
                l(4) =   1
     Q(r) pseudized with 0 coefficients

     PseudoPot. # 2 for Ti read from file:
     ../../ti_pbe_v1.4.uspp.F.UPF
     MD5 check sum: 88a00a6731bd790ddea75d31a80cb452
     Pseudo is Ultrasoft + core correction, Zval = 12.0
     Generated by new atomic code, or converted to UPF format
     Using radial grid of  851 points,  6 beta functions with:
                l(1) =   0
                l(2) =   0
                l(3) =   1
                l(4) =   1
                l(5) =   2
                l(6) =   2
     Q(r) pseudized with  6 coefficients,  rinner =    1.000   1.000   1.000
                                                       1.000   1.000

     PseudoPot. # 3 for Ti read from file:
     ../../Ti.fch.upf
     MD5 check sum: c9d79ca9e552aeeedea5fc8886ab3916
     Pseudo is Projector augmented-wave + core cor, Zval = 13.0
     Generated using "atomic" code by A. Dal Corso  v.6.0
     Shape of augmentation charge: PSQ
     Using radial grid of 1177 points,  7 beta functions with:
                l(1) =   0
                l(2) =   1
                l(3) =   0
                l(4) =   2
                l(5) =   2
                l(6) =   1
                l(7) =   1
     Q(r) pseudized with 0 coefficients

     atomic species   valence    mass     pseudopotential
        O              6.00    15.99940     O ( 1.00)
        Ti            12.00    47.86700     Ti( 1.00)
        Ti+           13.00    47.86700     Ti( 1.00)

      2 Sym. Ops. (no inversion) found

   Cartesian axes

     site n.     atom                  positions (alat units)
         1           Ti+ tau(   1) = (   0.0000000   0.3753223   0.1775731  )
         2           Ti  tau(   2) = (   0.0000000   0.7076976   0.3679328  )
         3           Ti  tau(   3) = (   0.0000000   0.4487718   0.4514792  )
         4           Ti  tau(   4) = (   0.0000000   0.6342480   0.0940267  )
         5           Ti  tau(   5) = (   0.0000000   0.0850067   0.2727529  )
         6           O   tau(   6) = (   0.0000000   0.4565033   0.0000000  )
         7           O   tau(   7) = (   0.0000000   0.1855250   0.0919865  )
         8           O   tau(   8) = (   0.0000000   0.8974948   0.4535194  )
         9           O   tau(   9) = (   0.0000000   0.2677691   0.3581661  )
        10           O   tau(  10) = (   0.0000000   0.8152526   0.1873398  )
        11           Ti  tau(  11) = (   0.0000000   0.5453357   0.7230790  )
        12           Ti  tau(  12) = (   0.0000000   0.8777091   0.9134387  )
        13           Ti  tau(  13) = (   0.0000000   0.6187852   0.9969851  )
        14           Ti  tau(  14) = (   0.0000000   0.8042614   0.6395326  )
        15           Ti  tau(  15) = (   0.0000000   0.2550200   0.8182588  )
        16           O   tau(  16) = (   0.0000000   0.6265166   0.5455059  )
        17           O   tau(  17) = (   0.0000000   0.3555365   0.6374924  )
        18           O   tau(  18) = (   0.0000000   1.0675082   0.9990253  )
        19           O   tau(  19) = (   0.0000000   0.4377821   0.9036709  )
        20           O   tau(  20) = (   0.0000000   0.9852642   0.7328457  )
        21           Ti  tau(  21) = (  -0.2039725   0.8318274   0.1775731  )
        22           Ti  tau(  22) = (  -0.2039725   1.1642008   0.3679328  )
        23           Ti  tau(  23) = (  -0.2039725   0.9052751   0.4514792  )
        24           Ti  tau(  24) = (  -0.2039725   1.0907513   0.0940267  )
        25           Ti  tau(  25) = (  -0.2039725   0.5415099   0.2727529  )
        26           O   tau(  26) = (  -0.2039725   0.9130065   0.0000000  )
        27           O   tau(  27) = (  -0.2039725   0.6420264   0.0919865  )
        28           O   tau(  28) = (  -0.2039725   1.3539981   0.4535194  )
        29           O   tau(  29) = (  -0.2039729   0.7242714   0.3581661  )
        30           O   tau(  30) = (  -0.2039725   1.2717559   0.1873398  )
        31           Ti  tau(  31) = (  -0.2039725   1.0018389   0.7230790  )
        32           Ti  tau(  32) = (  -0.2039725   1.3342142   0.9134387  )
        33           Ti  tau(  33) = (  -0.2039725   1.0752885   0.9969851  )
        34           Ti  tau(  34) = (  -0.2039725   1.2607646   0.6395326  )
        35           Ti  tau(  35) = (  -0.2039725   0.7115233   0.8182588  )
        36           O   tau(  36) = (  -0.2039725   1.0830199   0.5455059  )
        37           O   tau(  37) = (  -0.2039725   0.8120398   0.6374924  )
        38           O   tau(  38) = (  -0.2039725   1.5240133   0.9990253  )
        39           O   tau(  39) = (  -0.2039725   0.8942853   0.9036709  )
        40           O   tau(  40) = (  -0.2039725   1.4417674   0.7328457  )
        41           Ti  tau(  41) = (   0.2039725   0.8318274   0.1775731  )
        42           Ti  tau(  42) = (   0.2039725   1.1642008   0.3679328  )
        43           Ti  tau(  43) = (   0.2039725   0.9052751   0.4514792  )
        44           Ti  tau(  44) = (   0.2039725   1.0907513   0.0940267  )
        45           Ti  tau(  45) = (   0.2039725   0.5415099   0.2727529  )
        46           O   tau(  46) = (   0.2039725   0.9130065   0.0000000  )
        47           O   tau(  47) = (   0.2039725   0.6420264   0.0919865  )
        48           O   tau(  48) = (   0.2039725   1.3539981   0.4535194  )
        49           O   tau(  49) = (   0.2039729   0.7242714   0.3581661  )
        50           O   tau(  50) = (   0.2039725   1.2717559   0.1873398  )
        51           Ti  tau(  51) = (   0.2039725   1.0018389   0.7230790  )
        52           Ti  tau(  52) = (   0.2039725   1.3342142   0.9134387  )
        53           Ti  tau(  53) = (   0.2039725   1.0752885   0.9969851  )
        54           Ti  tau(  54) = (   0.2039725   1.2607646   0.6395326  )
        55           Ti  tau(  55) = (   0.2039725   0.7115233   0.8182588  )
        56           O   tau(  56) = (   0.2039725   1.0830199   0.5455059  )
        57           O   tau(  57) = (   0.2039725   0.8120398   0.6374924  )
        58           O   tau(  58) = (   0.2039725   1.5240133   0.9990253  )
        59           O   tau(  59) = (   0.2039725   0.8942853   0.9036709  )
        60           O   tau(  60) = (   0.2039725   1.4417674   0.7328457  )
        61           Ti  tau(  61) = (   0.0000000   1.2883288   0.1775731  )
[...]
        66           O   tau(  66) = (   0.0000000   1.3695098   0.0000000  )
        67           O   tau(  67) = (   0.0000000   1.0985297   0.0919865  )
        68           O   tau(  68) = (   0.0000000   1.8105014   0.4535194  )
        69           O   tau(  69) = (   0.0000000   1.1807737   0.3581661  )
        70           O   tau(  70) = (   0.0000000   1.7282573   0.1873398  )
        71           Ti  tau(  71) = (   0.0000000   1.4583422   0.7230790  )
        72           Ti  tau(  72) = (   0.0000000   1.7907174   0.9134387  )
        73           Ti  tau(  73) = (   0.0000000   1.5317917   0.9969851  )
        74           Ti  tau(  74) = (   0.0000000   1.7172679   0.6395326  )
        75           Ti  tau(  75) = (   0.0000000   1.1680265   0.8182588  )
        76           O   tau(  76) = (   0.0000000   1.5395231   0.5455059  )
        77           O   tau(  77) = (   0.0000000   1.2685431   0.6374924  )
        78           O   tau(  78) = (   0.0000000   1.9805165   0.9990253  )
        79           O   tau(  79) = (   0.0000000   1.3507886   0.9036709  )
        80           O   tau(  80) = (   0.0000000   1.8982707   0.7328457  )

     number of k points=     1  Gaussian smearing, width (Ry)=  0.0020
                       cart. coord. in units 2pi/alat
        k(    1) = (   0.0000000   0.0000000   0.0000000), wk =   2.0000000

     Check: negative core charge=   -0.000004

     Initial potential from superposition of free atoms

     starting charge  680.99820, renormalised to  721.00000

     negative rho (up, down):  5.930E-02 0.000E+00
     Starting wfcs are  560 randomized atomic wfcs
     Checking if some PAW data can be deallocated...

     Self-consistent Calculation

     iteration #  1     ecut=    75.00 Ry     beta= 0.40
     Davidson diagonalization with overlap
     ethr =  1.00E-02,  avg # of iterations =  3.0

     negative rho (up, down):  5.807E-02 0.000E+00

     total energy              =   -6516.62799248 Ry
     estimated scf accuracy    <      16.15544427 Ry

[...]

     total energy              =   -6521.57425948 Ry
     estimated scf accuracy    <       0.00000002 Ry

     iteration # 52     ecut=    75.00 Ry     beta= 0.40
     Davidson diagonalization with overlap
     ethr =  2.44E-12,  avg # of iterations =  2.0

     negative rho (up, down):  3.467E-02 0.000E+00

     End of self-consistent calculation

          k = 0.0000 0.0000 0.0000 ( 64441 PWs)   bands (ev):

   -47.9811 -43.3708 -43.3596 -43.3364 -43.3258 -43.3187 -43.3104 -43.3082
   -43.3055 -43.2958 -43.2921 -43.2911 -43.2910 -43.2890 -43.2864 -43.2850
   -43.2714 -43.1509 -43.1490 -43.1481 -43.1396 -43.1199 -43.1159 -43.1127
   -43.1124 -43.1103 -43.1096 -43.1074 -43.1047 -43.1012 -43.0926 -43.0874
   -42.6246 -42.6219 -42.5371 -42.5303 -42.5288 -42.5270 -42.5216 -42.5186
   -24.2274 -24.1656 -23.7928 -19.9894 -19.9891 -19.9467 -19.9337 -19.9211
   -19.9001 -19.8985 -19.8907 -19.8891 -19.8781 -19.8723 -19.8680 -19.8579
   -19.8497 -19.8469 -19.8463 -19.8447 -19.8397 -19.8357 -19.8309 -19.8284
   -19.8280 -19.8237 -19.8215 -19.8215 -19.8119 -19.7842 -19.7653 -19.7524
   -19.7239 -19.7159 -19.7052 -19.6953 -19.6922 -19.6742 -19.6546 -19.6499
   -19.6485 -19.6333 -19.6312 -19.6204 -19.6162 -19.6109 -19.6043 -19.5832
   -19.5691 -19.5689 -19.5638 -19.5600 -19.5555 -19.5430 -19.5391 -19.5348
   -19.5346 -19.5281 -19.5252 -19.5153 -19.4933 -19.4847 -19.4742 -19.4534
   -19.4460 -19.4433 -19.4404 -19.4385 -19.4313 -19.4050 -19.3891 -19.3804
   -19.3796 -19.3705 -19.3525 -19.3422 -19.3247 -19.3202 -19.3136 -19.2923
   -19.2718 -19.2552 -19.2436 -19.2292 -19.1972 -19.1844 -19.1676 -19.1666
   -19.1398 -19.1357 -19.1310 -19.1289 -19.1242 -19.1210 -19.1147 -19.1036
   -19.0981 -19.0822 -19.0636 -19.0626 -19.0573 -19.0409 -19.0287 -19.0226
   -19.0210 -19.0140 -19.0122 -19.0093 -19.0011 -18.9961 -18.9809 -18.9499
   -18.4968 -18.4867 -18.3923 -18.3913 -18.3833 -18.3823 -18.3777 -18.3727
    -6.6480  -6.3593  -6.1970  -6.1040  -6.0999  -6.0987  -6.0501  -5.9905
    -5.9069  -5.9005  -5.8924  -5.8867  -5.8463  -5.8397  -5.8230  -5.8163
    -5.8099  -5.8004  -5.7824  -5.7248  -5.7113  -5.6961  -5.6202  -5.6190
    -5.6128  -5.6093  -5.5275  -5.5198  -5.4627  -5.4535  -5.4236  -5.4182
    -5.3508  -5.3402  -5.3391  -5.3264  -5.2820  -5.2009  -5.1754  -5.1668
     6.1018   6.1112   6.2040   6.2055   6.6625   6.6686   6.6850   6.6903
     6.7241   6.7380   6.7519   6.7541   6.8046   6.8160   6.8284   6.8403
     6.9017   6.9079   7.0003   7.0722   7.0812   7.0845   7.0983   7.1826
     7.1926   7.2287   7.2974   7.3892   7.3909   7.3923   7.3991   7.4002
     7.4202   7.4637   7.5049   7.5448   7.5465   7.5760   7.6133   7.6210
     7.6420   7.6469   7.6524   7.6605   7.6917   7.6940   7.7542   7.7588
     7.7919   7.7945   7.8031   7.8965   7.8973   7.9043   7.9079   7.9082
     7.9118   8.0176   8.0235   8.0432   8.0453   8.0515   8.0592   8.0704
     8.1035   8.1048   8.1115   8.2022   8.2055   8.2494   8.2835   8.3419
     8.3915   8.4199   8.4241   8.4531   8.4632   8.5054   8.5399   8.5819
     8.5876   8.5879   8.5969   8.7181   8.7237   8.7286   8.7299   8.7595
     8.8355   8.8815   8.9554   9.0360   9.0458   9.1179   9.1185   9.1360
     9.1657   9.2177   9.2255   9.2279   9.2757   9.2824   9.3002   9.3141
     9.3537   9.3587   9.4396   9.4442   9.5085   9.5257   9.5494   9.5715
     9.6993   9.7322   9.9365  10.0118  10.0521  10.0680  10.1334  10.1596
    11.6327  11.8326  12.0308  12.1645  12.4341  12.4516  12.4905  12.9560
    12.9563  13.0125  13.0151  13.0199  13.0329  13.1243  13.3126  13.3973
    13.4232  13.4599  13.5243  13.5578  13.5634  13.5829  13.7215  13.7322
    13.8494  13.8681  13.9098  13.9495  13.9513  13.9876  13.9897  14.0122
    14.0641  14.0705  14.1028  14.2158  14.2754  14.2942  14.3086  14.3215
    14.3481  14.4474  14.7870  14.8246  14.8345  14.8421  14.8907  14.9136
    14.9942  14.9948  15.1324  15.1641  15.1807  15.2121  15.2263  15.2363
    15.2448  15.2700  15.2747  15.2872  15.3097  15.3438  15.3818  15.3951
    15.4004  15.4453  15.4819  15.5258  15.5368  15.5504  15.6019  15.6225
    15.6263  15.6545  15.6764  15.6967  15.7113  15.7625  15.7869  15.8770
    15.8850  15.9161  15.9361  15.9631  15.9942  16.0059  16.0296  16.0323
    16.0600  16.0747  16.0854  16.0955  16.1113  16.1262  16.1386  16.1565
    16.1596  16.1821  16.1830  16.2246  16.2251  16.2424  16.2531  16.2539
    16.2765  16.2771  16.2796  16.2859  16.2950  16.3178  16.3564  16.3630
    16.3691

     the Fermi energy is    14.3516 ev

!    total energy              =   -6521.57425948 Ry
     estimated scf accuracy    <          4.2E-09 Ry
     smearing contrib. (-TS)   =      -0.00154582 Ry
     internal energy E=F+TS    =   -6521.57271366 Ry

     The total energy is F=E-TS. E is the sum of the following terms:
     one-electron contribution =   -1775.19629359 Ry
     hartree contribution      =    1268.22671380 Ry
     xc contribution           =   -1052.08363736 Ry
     ewald contribution        =   -4556.01131889 Ry
     one-center paw contrib.   =    -406.50817763 Ry

     convergence has been achieved in  52 iterations

     Writing output data file ./pwscf.save/

     General routines

     Parallel routines

   This run was terminated on:  15:15: 3   2Feb2022

   JOB DONE.
[1643832903.641235] [node0222:726410:0]          mpool.c:43   UCX  WARN  object 0x3958280 was not returned to mpool ucp_requests
[1643832903.641252] [node0222:726410:0]          mpool.c:43   UCX  WARN  object 0x3958600 was not returned to mpool ucp_requests
[1643832903.641255] [node0222:726410:0]          mpool.c:43   UCX  WARN  object 0x395b8c0 was not returned to mpool ucp_requests
[1643832903.641352] [node0222:726415:0]          mpool.c:43   UCX  WARN  object 0x38992c0 was not returned to mpool ucp_requests
[1643832903.642593] [node0222:726412:0]          mpool.c:43   UCX  WARN  object 0x3dac800 was not returned to mpool ucp_requests
[1643832903.642605] [node0222:726412:0]          mpool.c:43   UCX  WARN  object 0x3dae240 was not returned to mpool ucp_requests
[1643832903.643405] [node0222:726407:0]          mpool.c:43   UCX  WARN  object 0x3ccf2c0 was not returned to mpool ucp_requests
[1643832903.643590] [node0222:726399:0]          mpool.c:43   UCX  WARN  object 0x2dce340 was not returned to mpool ucp_requests
[1643832903.643603] [node0222:726399:0]          mpool.c:43   UCX  WARN  object 0x2dd1d00 was not returned to mpool ucp_requests
[1643832903.643770] [node0223:3660813:0]          mpool.c:43   UCX  WARN  object 0x3bb5000 was not returned to mpool ucp_requests
[1643832903.644296] [node0222:726401:0]          mpool.c:43   UCX  WARN  object 0x487ff40 was not returned to mpool ucp_requests
[1643832903.645320] [node0223:3660805:0]          mpool.c:43   UCX  WARN  object 0x48ff300 was not returned to mpool ucp_requests
[1643832903.646430] [node0223:3660811:0]          mpool.c:43   UCX  WARN  object 0x35be980 was not returned to mpool ucp_requests
[1643832903.647799] [node0223:3660809:0]          mpool.c:43   UCX  WARN  object 0x3776d40 was not returned to mpool ucp_requests
[1643832903.648375] [node0223:3660807:0]          mpool.c:43   UCX  WARN  object 0x4799a00 was not returned to mpool ucp_requests